611023
155,112,133,27,169,40,81,130,102,62,55,151,87,35,94,108,50,28,78,215,75,205,34,37,192,179,196,107,161,184,116,89,91,96,166,101,9,68,211,156,44,30,64,5,145,144,26,22,117,20,183,210,7,63,32,72,1,36,229,162,135,140,71,118,49,67,74,83,157,39,207,147,127,43,31,178,163,16,189,185,60,137,138,3,208,159,23,199,98,42,113,73,160,51,226,69,177,122,152,191,86,70,126,209,218,206,136,195,119,114,10,201,200,198,29,174,65,154,164,214,46,125,14,110,8,15,97,120,165,194,227,19,134,111,48,225,47,17,13,220,176,223,6,203,38,224,33,129,153,217,21,4,142,170,150,171,186,90,109,228,88,146,12,187,103,104,230,212,45,204,172,168,93,213,221,59,58,139,197,143,11,76,57,95,79,84,193,167,85,188,181,124,173,131,148,182,61,123,25,80,52,132,149,115,2,82,158,180,121,77,222,41,128,106,141,219,24,66,190,99,202,105,216,100,53,92,175,54,18,56